n = 15;
m = 5;
p = [7, 3, 0, 5, 0];
v = [0, 0.2, 0.5, 0.8, 1];
ce = [1, 2, 1, 2, 3];
c = [| 0, 1, 3, 5, 7 |
     | 1, 0, 2, 4, 6 |
     | 3, 2, 0, 2, 4 |
     | 5, 4, 2, 0, 2 |
     | 7, 6, 4, 2, 0 |];
ct = 18;
maxM = 12;
